p cnf 13 41
4 9 -13 0
-1 -8 13 0
-2 9 -11 0
1 6 -9 0
5 -10 11 0
-1 -7 -8 0
4 12 -13 0
-2 -11 13 0
-1 3 6 0
-4 5 -9 0
-5 11 12 0
4 -7 -10 0
1 7 11 0
-5 7 -10 0
-2 4 -13 0
-5 -9 -12 0
3 8 11 0
2 9 11 0
3 4 -9 0
3 -4 -10 0
7 -11 12 0
-3 -9 10 0
1 -4 -6 0
-4 -10 -13 0
6 7 9 0
-4 -12 13 0
3 -7 13 0
1 3 -8 0
-1 10 -11 0
-3 10 12 0
3 -6 -11 0
-6 -11 -13 0
-5 -10 12 0
-7 9 13 0
-5 -7 9 0
3 6 10 0
-3 8 -10 0
1 7 -10 0
2 -3 -9 0
5 8 -9 0
2 -6 13 0
